33D32945 STP File, STP Format Version 1.0

SECTION Comment
Name    "Series B" 
Creator "A. M. Costa" 
Format  "Z.H. Fu and J. K. Hao"
Remark  "Sparse graph with random weights"
#TotalEdgeCost 520
#BudgetFraction 5
END 

SECTION Graph 
Nodes 75 
Edges 94 
Root 1
Budget 104
HopLimit 9
E 1 48 2 
E 2 15 3 
E 2 39 6 
E 3 27 10 
E 3 40 10 
E 4 43 8 
E 5 58 10 
E 6 28 6 
E 7 17 6 
E 7 19 9 
E 7 33 10 
E 7 38 6 
E 7 69 1 
E 8 25 10 
E 8 39 1 
E 8 51 4 
E 9 23 5 
E 9 70 4 
E 9 72 1 
E 10 44 1 
E 11 59 9 
E 12 42 2 
E 13 70 8 
E 14 41 9 
E 14 45 6 
E 15 20 1 
E 15 51 7 
E 16 52 9 
E 16 53 10 
E 16 65 3 
E 18 45 2 
E 18 60 5 
E 18 74 7 
E 19 25 7 
E 19 64 7 
E 20 56 6 
E 20 67 3 
E 21 29 4 
E 21 41 7 
E 22 34 5 
E 22 48 7 
E 23 41 7 
E 24 63 10 
E 26 44 3 
E 26 72 6 
E 27 36 10 
E 27 40 3 
E 27 47 5 
E 28 44 9 
E 28 48 7 
E 28 63 9 
E 29 30 1 
E 30 41 8 
E 30 42 2 
E 30 62 2 
E 31 60 5 
E 32 34 3 
E 32 61 9 
E 32 74 9 
E 33 65 2 
E 35 60 8 
E 36 44 4 
E 37 61 9 
E 37 74 4 
E 38 47 5 
E 38 54 8 
E 38 60 10 
E 38 65 2 
E 39 67 6 
E 41 47 10 
E 42 53 3 
E 42 56 10 
E 42 65 6 
E 42 74 1 
E 43 44 8 
E 43 51 9 
E 43 54 5 
E 43 55 6 
E 43 71 2 
E 44 46 2 
E 44 57 2 
E 44 65 4 
E 44 68 2 
E 46 49 10 
E 46 52 2 
E 50 65 1 
E 50 73 1 
E 54 66 6 
E 56 75 2 
E 57 58 9 
E 59 65 1 
E 60 61 1 
E 60 67 10 
E 70 71 4 
END 

SECTION ProfitableVertices 
ProfitableVertices 13 
PV 1 24
PV 23 35
PV 24 76
PV 26 39
PV 29 12
PV 36 95
PV 51 39
PV 52 77
PV 55 38
PV 59 97
PV 60 20
PV 63 63
PV 70 59
END 

EOF 
